$molecule
0 1
 H     3.651033455538    -0.156618464153    -1.430803067283
 C     2.942099410034    -0.764568845263    -0.876910435899
 H     3.399826186225    -1.096091666757     0.050012603085
 H     2.696555228693    -1.628431019111    -1.487130190777
 C     1.694004900577     0.038754118370    -0.664840341354
 O     1.050072308092     0.499255868784    -1.605999602181
 N     1.316392321089     0.227792320544     0.615711222197
 H     1.832371882520    -0.224874818832     1.346988157337
 C     0.151089827102     1.010549697318     0.966178706913
 H     0.118248164067     1.875593487450     0.306852503234
 H     0.246889741965     1.340058179353     1.994503164010
 C    -1.147642954119     0.228967818212     0.858500984291
 O    -1.851554864742     0.001713813299     1.835575789513
 N    -1.441569640308    -0.177669446051    -0.386740582321
 H    -0.783896590279     0.048966495238    -1.119106815578
 C    -2.624399908010    -0.960666908444    -0.646938239847
 H    -2.677147782698    -1.163094048156    -1.710726606511
 H    -3.515235327429    -0.419775432819    -0.339462840021
 H    -2.596509970536    -1.900984683961    -0.101869188673
$end

$rem
jobtype freq
exchange hf
basis 3-21g
symmetry off
sym_ignore true
$end

@@@@

$molecule
read
$end

$rem
jobtype opt
exchange hf
basis 3-21g
symmetry off
sym_ignore true
geom_opt_hessian read
$end

@@@@

$molecule
read
$end

$rem
jobtype freq
exchange hf
basis 3-21g
symmetry off
sym_ignore true
$end
