memory 4 gb

molecule dimer {
 0  1
C          -0.5930588    -0.6920836     0.9165214
C           0.3599057     0.3274477     0.3151283
O           0.1851479     0.3039439    -1.1135225
H           0.7933177     0.9552169    -1.5034896
H          -0.4922298    -0.7077437     2.0178403
H          -1.6400582    -0.4424081     0.6638039
H          -0.3742908    -1.7045489     0.5299216
H           1.4102587     0.0756713     0.5824073
H           0.1406847     1.3416589     0.7168856

units angstrom
symmetry c1
}


set globals{
 basis aug-cc-pVTZ
 print 1
}

energy('mp2')

