memory 4 gb

molecule dimer {
   C  24.081  20.550   2.967  
   C  25.023  21.562   2.352  
   O  24.861  21.548   0.942  
   H  25.478  22.205   0.581  
   H  24.180  20.535   4.056  
   H  23.042  20.785   2.711  
   H  24.284  19.546   2.580  
   H  26.062  21.311   2.589  
   H  24.803  22.567   2.723  

units angstrom
symmetry c1
}

set globals{
basis       aug-cc-pVDZ
print       1
}

optimize('pbe')

