import os

os.system("rm -f objective.dat")

molecules = []

molecule water  {
O     0.0000000000   -0.0000000000    0.0778201548
H     0.0000000000    0.7851664383   -0.4563260774
H     0.0000000000   -0.7851664383   -0.4563260774

symmetry c1
}

molecules.append(water)

plugin_load("/home/egh4/lr_df/plugins/plugin_objective_data/plugin_objective_data.so")

for mol in molecules:
    activate(mol)

    set {
      basis cc-pvdz
      freeze_core true
    }
    
    energy('scf')
    plugin("/home/egh4/lr_df/plugins/plugin_objective_data/plugin_objective_data.so")
    clean()
