import os

os.system("rm -f objective.dat")

molecules = []

molecule sigmatropic_shift {
C       -0.9069550000    1.3094200000    0.0158640000
C       -0.9069550000   -1.3094200000    0.0158640000
C        0.5078650000    1.2116400000    0.0158640000
C        0.5078650000   -1.2116400000    0.0158640000
C        1.1855050000    0.0000000000   -0.1424560000
H       -1.2061450000    0.0000000000    0.4983740000
H       -1.3336550000    2.1816800000    0.5155040000
H       -1.3336550000   -2.1816800000    0.5155040000
H       -1.4518150000    1.0687000000   -0.8966960000
H       -1.4518150000   -1.0687000000   -0.8966960000
H        1.0911950000    2.0460300000    0.4055140000
H        1.0911950000   -2.0460300000    0.4055140000
H        2.2707550000    0.0000000000   -0.0730060000

symmetry c1
}

molecules.append(sigmatropic_shift)

plugin_load("/home/egh4/lr_df/plugins/plugin_objective_data/plugin_objective_data.so")

for mol in molecules:
    activate(mol)

    set {
      basis cc-pvdz
      freeze_core true
    }
    
    energy('scf')
    plugin("/home/egh4/lr_df/plugins/plugin_objective_data/plugin_objective_data.so")
    clean()

