%nprocshared=2
%mem=3500MB
%chk=chcl3_min_sym.chk
# opt b3lyp/6-31g(d) geom=connectivity

chcl3_min

0 1
 C                  0.00000000    0.00000000    0.47563839
 H                  0.00000000    0.00000000    1.56203774
 Cl                -1.41973774   -0.81968597   -0.08658571
 Cl                -0.00000000    1.63937194   -0.08658571
 Cl                 1.41973774   -0.81968597   -0.08658571

 1 2 1.0 3 1.0 4 1.0 5 1.0
 2
 3
 4
 5

