$molecule
0 1
 C                  0.00000000    0.00000000    0.75758895
 H                  0.89463200   -0.00000000    1.37412495
 H                 -0.89463200   -0.00000000    1.37412495
 Cl                 0.00000000    1.47508500   -0.21452305
 Cl                 0.00000000   -1.47508500   -0.21452305
$end

$rem
jobtype sp
moprop 2
scf_convergence 8
basis aug-cc-pvdz
exchange pbe0
symmetry off
sym_ignore true
$end

@@@@

$molecule
read
$end

$rem
jobtype sp
do_dma true
scf_convergence 8
exchange hf
correlation rimp2
basis aug-cc-pvtz
aux_basis rimp2-aug-cc-pvtz
symmetry off
sym_ignore true
$end
