%nprocshared=2
%mem=3500MB
%chk=dcm_min_sym.chk
# opt b3lyp/6-31g(d) geom=connectivity

dcm_min

0 1
 C                  0.00000000    0.00000000    0.75758895
 H                  0.89463200   -0.00000000    1.37412495
 H                 -0.89463200   -0.00000000    1.37412495
 Cl                 0.00000000    1.47508500   -0.21452305
 Cl                 0.00000000   -1.47508500   -0.21452305

 1 2 1.0 3 1.0 4 1.0 5 1.0
 2
 3
 4
 5

