molecule water {
O     0.0000000000   -0.0000000000    0.0778201548
H     0.0000000000    0.7851664383   -0.4563260774
H     0.0000000000   -0.7851664383   -0.4563260774

symmetry c1
}

plugin_load("/home/egh4/lr_df/plugins/plugin_objective_data/plugin_objective_data.so")

set {
  basis cc-pvdz
  freeze_core true
}

energy('scf')
plugin("/home/egh4/lr_df/plugins/plugin_objective_data/plugin_objective_data.so")
