molecule water {
O     0.0000000000   -0.0000000000    0.0778201548
H     0.0000000000    0.7851664383   -0.4563260774
H     0.0000000000   -0.7851664383   -0.4563260774

symmetry c1
}


plugin_load("/home/egh4/lr_df/plugins/plugin_objective/plugin_objective.so")

set {
  basis cc-pvdz
  freeze_core true
}

basis file cc-pvdz-overlap.gbs

set plugin_objective {
  print 1
  debug 1
  ribasis cc-pvdz-overlap
  df_metric j
}

energy('scf')
plugin("/home/egh4/lr_df/plugins/plugin_objective/plugin_objective.so")
